letting n =  10
letting blocks =  [[1, 1], [1, 2], [1, 6], [1, 10], [2, 3], [2, 4], [2, 6], [2, 9], [3, 1], [3, 2], [3, 5], [3, 9], [3, 10], [4, 1], [4, 2], [4, 3], [4, 5], [4, 6], [4, 8], [5, 1], [5, 5], [5, 6], [5, 7], [5, 8], [5, 10], [6, 2], [6, 5], [6, 6], [6, 7], [6, 10], [7, 3], [7, 4], [7, 5], [7, 8], [7, 9], [7, 10], [8, 1], [8, 2], [8, 4], [8, 5], [8, 8], [8, 9], [9, 3], [9, 6], [9, 7], [9, 8], [9, 9], [10, 2], [10, 4], [10, 7], [10, 8], [10, 10]]
